NAME: random-14-24549
TYPE: TSP
COMMENT: size=14 seed=24549
DIMENSION: 30
EDGE_WEIGHT_TYPE: EUC_2D
NODE_COORD_SECTION
+0 43 538
-0 43 538
+1 104 703
-1 18 767
+2 355 826
-2 702 688
+3 955 402
-3 999 206
+4 551 585
-4 596 908
+5 891 8
-5 915 66
+6 956 272
-6 72 331
+7 820 104
-7 744 457
+8 114 828
-8 400 638
+9 561 658
-9 655 433
+10 475 288
-10 977 846
+11 147 757
-11 790 413
+12 488 682
-12 597 628
+13 153 300
-13 839 721
+14 955 312
-14 930 305
PRECEDENCE_SECTION
+0 -0
+1 -1
+2 -2
+3 -3
+4 -4
+5 -5
+6 -6
+7 -7
+8 -8
+9 -9
+10 -10
+11 -11
+12 -12
+13 -13
+14 -14
EOF
